nb_edges = 45;
e_name = ["aa", "ab", "ac", "ad", "ae", "af", "ag", "ah", "ai", "aj", "ak", "al", "am", "an", "ao", "ap", "aq", "ar", "as", "at", "au", "av", "aw", "ax", "ay", "az", "ba", "bb", "bc", "bd", "be", "bf", "bg", "bh", "bi", "bj", "bk", "bl", "bm", "bn", "bo", "bp", "bq", "br", "bs"];
e_type = [border, border, inter, inter, inter, inter, inter, inter, inter, inter, inter, inter, inter, inter, inter, platform, platform, platform, platform, platform, platform, platform, platform, platform, platform, platform, platform, platform, platform, platform, inter, inter, inter, inter, inter, inter, inter, inter, inter, inter, inter, inter, inter, border, border];
e_cols = [{1},{2},{3},{4},{4},{5},{5},{5},{6,7},{6},{6},{7},{7},{7},{7},{8},{8},{8},{8},{8},{9},{9},{9},{9},{9},{10},{10},{10},{10},{10},{11,12},{11},{11},{11},{11},{12},{12},{13},{13},{13},{14},{15},{15},{16},{17}];
nb_trains = 16;
t_name = ["T1", "T2", "T3", "T4", "T5", "T6", "T7", "T8", "T9", "T10", "T11", "T12", "T13", "T14", "T15", "T16"];
t_routes = [{1,2,3,4,5},{6},{7},{8,9,10,11,12},{13},{14,15,16,17,18},{19},{20},{21},{22},{23},{24},{25},{26,27,28,29,30},{31,32,33,34,35},{36,37,38,39,40}];
t_est = [1788, 1999, 2403, 987, 2828, 1681, 3120, 1055, 1823, 2360, 1580, 3107, 2376, 553, 2601, 2717];
t_type = [pass, appear, vanish, pass, vanish, pass, vanish, appear, vanish, vanish, appear, appear, appear, pass, pass, pass];
nb_routes = 40;
r_name = ["IE1-I1W", "IE2-I2W", "IE3-I3W", "IE4-I4W", "IE5-I5W", "I3E", "IW2", "IW1-I1E", "IW2-I2E", "IW3-I3E", "IW4-I4E", "IW5-I5E", "IW3", "IE1-I1W", "IE2-I2W", "IE3-I3W", "IE4-I4W", "IE5-I5W", "IW4", "I1E", "IW5", "IW1", "I5E", "I2W", "I4W", "IW1-I1E", "IW2-I2E", "IW3-I3E", "IW4-I4E", "IW5-I5E", "IE1-I1W", "IE2-I2W", "IE3-I3W", "IE4-I4W", "IE5-I5W", "IW1-I1E", "IW2-I2E", "IW3-I3E", "IW4-I4E", "IW5-I5E"];
r_it_1 = ["IE1", "IE2", "IE3", "IE4", "IE5", "I3E", "IW2", "IW1", "IW2", "IW3", "IW4", "IW5", "IW3", "IE1", "IE2", "IE3", "IE4", "IE5", "IW4", "I1E", "IW5", "IW1", "I5E", "I2W", "I4W", "IW1", "IW2", "IW3", "IW4", "IW5", "IE1", "IE2", "IE3", "IE4", "IE5", "IW1", "IW2", "IW3", "IW4", "IW5"];
r_it_2 = ["I1W", "I2W", "I3W", "I4W", "I5W", "", "", "I1E", "I2E", "I3E", "I4E", "I5E", "", "I1W", "I2W", "I3W", "I4W", "I5W", "", "", "", "", "", "", "", "I1E", "I2E", "I3E", "I4E", "I5E", "I1W", "I2W", "I3W", "I4W", "I5W", "I1E", "I2E", "I3E", "I4E", "I5E"];
r_platform_name = ["S_I", "S_II", "S_III", "S_IV", "S_V", "S_III", "S_II", "S_I", "S_II", "S_III", "S_IV", "S_V", "S_III", "S_I", "S_II", "S_III", "S_IV", "S_V", "S_IV", "S_I", "S_V", "S_I", "S_V", "S_II", "S_IV", "S_I", "S_II", "S_III", "S_IV", "S_V", "S_I", "S_II", "S_III", "S_IV", "S_V", "S_I", "S_II", "S_III", "S_IV", "S_V"];
r_dwell_min = [0, 0, 0, 0, 0, 0, 100, 100, 100, 100, 100, 100, 100, 0, 0, 0, 0, 0, 100, 0, 100, 100, 0, 0, 0, 0, 0, 0, 0, 0, 0, 0, 0, 0, 0, 0, 0, 0, 0, 0];
r_dur_min = [120, 120, 120, 120, 120, 60, 60, 120, 120, 120, 120, 120, 60, 120, 120, 120, 120, 120, 60, 60, 60, 60, 60, 60, 60, 120, 120, 120, 120, 120, 120, 120, 120, 120, 120, 120, 120, 120, 120, 120];
r_overlap = [1, 1, 1, 1, 1, 0, 0, 1, 1, 1, 1, 1, 0, 1, 1, 1, 1, 1, 0, 0, 0, 0, 0, 0, 0, 1, 1, 1, 1, 1, 1, 1, 1, 1, 1, 1, 1, 1, 1, 1];
r_block_start = [1, 12, 25, 38, 51, 64, 72, 80, 91, 104, 117, 130, 143, 151, 162, 175, 188, 201, 214, 222, 229, 237, 244, 252, 260, 268, 279, 292, 305, 318, 331, 342, 355, 368, 381, 394, 405, 418, 431, 444];
r_block_end = [11, 24, 37, 50, 63, 71, 79, 90, 103, 116, 129, 142, 150, 161, 174, 187, 200, 213, 221, 228, 236, 243, 251, 259, 267, 278, 291, 304, 317, 330, 341, 354, 367, 380, 393, 404, 417, 430, 443, 456];
r_train = [1, 1, 1, 1, 1, 2, 3, 4, 4, 4, 4, 4, 5, 6, 6, 6, 6, 6, 7, 8, 9, 10, 11, 12, 13, 14, 14, 14, 14, 14, 15, 15, 15, 15, 15, 16, 16, 16, 16, 16];
nb_blocks = 456;
b_edge = [45, 42, 38, 31, 26, 21, 16, 9, 6, 4, 2, 45, 42, 38, 36, 32, 27, 22, 17, 12, 10, 6, 4, 2, 45, 42, 38, 36, 33, 28, 23, 18, 13, 10, 6, 4, 2, 45, 43, 40, 37, 34, 29, 24, 19, 14, 11, 8, 5, 2, 45, 43, 40, 37, 35, 30, 25, 20, 15, 11, 8, 5, 2, 18, 23, 28, 33, 36, 38, 41, 44, 1, 3, 6, 10, 12, 17, 22, 27, 1, 3, 6, 9, 16, 21, 26, 31, 38, 41, 44, 1, 3, 6, 10, 12, 17, 22, 27, 32, 36, 38, 41, 44, 1, 3, 6, 10, 13, 18, 23, 28, 33, 36, 38, 41, 44, 1, 3, 7, 11, 14, 19, 24, 29, 34, 37, 39, 41, 44, 1, 3, 7, 11, 15, 20, 25, 30, 35, 37, 39, 41, 44, 1, 3, 6, 10, 13, 18, 23, 28, 45, 42, 38, 31, 26, 21, 16, 9, 6, 4, 2, 45, 42, 38, 36, 32, 27, 22, 17, 12, 10, 6, 4, 2, 45, 42, 38, 36, 33, 28, 23, 18, 13, 10, 6, 4, 2, 45, 43, 40, 37, 34, 29, 24, 19, 14, 11, 8, 5, 2, 45, 43, 40, 37, 35, 30, 25, 20, 15, 11, 8, 5, 2, 1, 3, 7, 11, 14, 19, 24, 29, 16, 21, 26, 31, 38, 41, 44, 1, 3, 7, 11, 15, 20, 25, 30, 1, 3, 6, 9, 16, 21, 26, 20, 25, 30, 35, 37, 39, 41, 44, 27, 22, 17, 12, 10, 6, 4, 2, 29, 24, 19, 14, 11, 8, 5, 2, 1, 3, 6, 9, 16, 21, 26, 31, 38, 41, 44, 1, 3, 6, 10, 12, 17, 22, 27, 32, 36, 38, 41, 44, 1, 3, 6, 10, 13, 18, 23, 28, 33, 36, 38, 41, 44, 1, 3, 7, 11, 14, 19, 24, 29, 34, 37, 39, 41, 44, 1, 3, 7, 11, 15, 20, 25, 30, 35, 37, 39, 41, 44, 45, 42, 38, 31, 26, 21, 16, 9, 6, 4, 2, 45, 42, 38, 36, 32, 27, 22, 17, 12, 10, 6, 4, 2, 45, 42, 38, 36, 33, 28, 23, 18, 13, 10, 6, 4, 2, 45, 43, 40, 37, 34, 29, 24, 19, 14, 11, 8, 5, 2, 45, 43, 40, 37, 35, 30, 25, 20, 15, 11, 8, 5, 2, 1, 3, 6, 9, 16, 21, 26, 31, 38, 41, 44, 1, 3, 6, 10, 12, 17, 22, 27, 32, 36, 38, 41, 44, 1, 3, 6, 10, 13, 18, 23, 28, 33, 36, 38, 41, 44, 1, 3, 7, 11, 14, 19, 24, 29, 34, 37, 39, 41, 44, 1, 3, 7, 11, 15, 20, 25, 30, 35, 37, 39, 41, 44];
b_dur = [8, 17, 25, 34, 42, 51, 61, 15, 30, 45, 60, 7, 15, 22, 30, 37, 45, 52, 61, 12, 24, 36, 48, 60, 7, 15, 22, 30, 37, 45, 52, 61, 12, 24, 36, 48, 60, 7, 15, 22, 30, 37, 45, 52, 61, 12, 24, 36, 48, 60, 7, 15, 22, 30, 37, 45, 52, 61, 12, 24, 36, 48, 60, 0, 0, 0, 12, 24, 36, 48, 60, 7, 15, 22, 30, 37, 45, 52, 60, 8, 17, 25, 34, 42, 51, 61, 15, 30, 45, 60, 7, 15, 22, 30, 37, 45, 52, 61, 12, 24, 36, 48, 60, 7, 15, 22, 30, 37, 45, 52, 61, 12, 24, 36, 48, 60, 7, 15, 22, 30, 37, 45, 52, 61, 12, 24, 36, 48, 60, 7, 15, 22, 30, 37, 45, 52, 61, 12, 24, 36, 48, 60, 7, 15, 22, 30, 37, 45, 52, 60, 8, 17, 25, 34, 42, 51, 61, 15, 30, 45, 60, 7, 15, 22, 30, 37, 45, 52, 61, 12, 24, 36, 48, 60, 7, 15, 22, 30, 37, 45, 52, 61, 12, 24, 36, 48, 60, 7, 15, 22, 30, 37, 45, 52, 61, 12, 24, 36, 48, 60, 7, 15, 22, 30, 37, 45, 52, 61, 12, 24, 36, 48, 60, 7, 15, 22, 30, 37, 45, 52, 60, 0, 0, 0, 15, 30, 45, 60, 7, 15, 22, 30, 37, 45, 52, 60, 8, 17, 25, 34, 42, 51, 60, 0, 0, 0, 12, 24, 36, 48, 60, 0, 0, 0, 12, 24, 36, 48, 60, 0, 0, 0, 12, 24, 36, 48, 60, 8, 17, 25, 34, 42, 51, 61, 15, 30, 45, 60, 7, 15, 22, 30, 37, 45, 52, 61, 12, 24, 36, 48, 60, 7, 15, 22, 30, 37, 45, 52, 61, 12, 24, 36, 48, 60, 7, 15, 22, 30, 37, 45, 52, 61, 12, 24, 36, 48, 60, 7, 15, 22, 30, 37, 45, 52, 61, 12, 24, 36, 48, 60, 8, 17, 25, 34, 42, 51, 61, 15, 30, 45, 60, 7, 15, 22, 30, 37, 45, 52, 61, 12, 24, 36, 48, 60, 7, 15, 22, 30, 37, 45, 52, 61, 12, 24, 36, 48, 60, 7, 15, 22, 30, 37, 45, 52, 61, 12, 24, 36, 48, 60, 7, 15, 22, 30, 37, 45, 52, 61, 12, 24, 36, 48, 60, 8, 17, 25, 34, 42, 51, 61, 15, 30, 45, 60, 7, 15, 22, 30, 37, 45, 52, 61, 12, 24, 36, 48, 60, 7, 15, 22, 30, 37, 45, 52, 61, 12, 24, 36, 48, 60, 7, 15, 22, 30, 37, 45, 52, 61, 12, 24, 36, 48, 60, 7, 15, 22, 30, 37, 45, 52, 61, 12, 24, 36, 48, 60];
b_start_offset = [0, -8, -17, -25, -34, -42, -51, -1, -15, -30, -45, 0, -7, -15, -22, -30, -37, -45, -52, -1, -12, -24, -36, -48, 0, -7, -15, -22, -30, -37, -45, -52, -1, -12, -24, -36, -48, 0, -7, -15, -22, -30, -37, -45, -52, -1, -12, -24, -36, -48, 0, -7, -15, -22, -30, -37, -45, -52, -1, -12, -24, -36, -48, 0, 0, 0, 0, -12, -24, -36, -48, 0, -7, -15, -22, -30, -37, -45, -52, 0, -8, -17, -25, -34, -42, -51, -1, -15, -30, -45, 0, -7, -15, -22, -30, -37, -45, -52, -1, -12, -24, -36, -48, 0, -7, -15, -22, -30, -37, -45, -52, -1, -12, -24, -36, -48, 0, -7, -15, -22, -30, -37, -45, -52, -1, -12, -24, -36, -48, 0, -7, -15, -22, -30, -37, -45, -52, -1, -12, -24, -36, -48, 0, -7, -15, -22, -30, -37, -45, -52, 0, -8, -17, -25, -34, -42, -51, -1, -15, -30, -45, 0, -7, -15, -22, -30, -37, -45, -52, -1, -12, -24, -36, -48, 0, -7, -15, -22, -30, -37, -45, -52, -1, -12, -24, -36, -48, 0, -7, -15, -22, -30, -37, -45, -52, -1, -12, -24, -36, -48, 0, -7, -15, -22, -30, -37, -45, -52, -1, -12, -24, -36, -48, 0, -7, -15, -22, -30, -37, -45, -52, 0, 0, 0, 0, -15, -30, -45, 0, -7, -15, -22, -30, -37, -45, -52, 0, -8, -17, -25, -34, -42, -51, 0, 0, 0, 0, -12, -24, -36, -48, 0, 0, 0, 0, -12, -24, -36, -48, 0, 0, 0, 0, -12, -24, -36, -48, 0, -8, -17, -25, -34, -42, -51, -1, -15, -30, -45, 0, -7, -15, -22, -30, -37, -45, -52, -1, -12, -24, -36, -48, 0, -7, -15, -22, -30, -37, -45, -52, -1, -12, -24, -36, -48, 0, -7, -15, -22, -30, -37, -45, -52, -1, -12, -24, -36, -48, 0, -7, -15, -22, -30, -37, -45, -52, -1, -12, -24, -36, -48, 0, -8, -17, -25, -34, -42, -51, -1, -15, -30, -45, 0, -7, -15, -22, -30, -37, -45, -52, -1, -12, -24, -36, -48, 0, -7, -15, -22, -30, -37, -45, -52, -1, -12, -24, -36, -48, 0, -7, -15, -22, -30, -37, -45, -52, -1, -12, -24, -36, -48, 0, -7, -15, -22, -30, -37, -45, -52, -1, -12, -24, -36, -48, 0, -8, -17, -25, -34, -42, -51, -1, -15, -30, -45, 0, -7, -15, -22, -30, -37, -45, -52, -1, -12, -24, -36, -48, 0, -7, -15, -22, -30, -37, -45, -52, -1, -12, -24, -36, -48, 0, -7, -15, -22, -30, -37, -45, -52, -1, -12, -24, -36, -48, 0, -7, -15, -22, -30, -37, -45, -52, -1, -12, -24, -36, -48];
b_stop = [false, false, false, false, false, false, true, false, false, false, false, false, false, false, false, false, false, false, true, false, false, false, false, false, false, false, false, false, false, false, false, true, false, false, false, false, false, false, false, false, false, false, false, false, true, false, false, false, false, false, false, false, false, false, false, false, false, true, false, false, false, false, false, true, true, true, false, false, false, false, false, false, false, false, false, false, false, false, true, false, false, false, false, false, false, true, false, false, false, false, false, false, false, false, false, false, false, true, false, false, false, false, false, false, false, false, false, false, false, false, true, false, false, false, false, false, false, false, false, false, false, false, false, true, false, false, false, false, false, false, false, false, false, false, false, false, true, false, false, false, false, false, false, false, false, false, false, false, false, true, false, false, false, false, false, false, true, false, false, false, false, false, false, false, false, false, false, false, true, false, false, false, false, false, false, false, false, false, false, false, false, true, false, false, false, false, false, false, false, false, false, false, false, false, true, false, false, false, false, false, false, false, false, false, false, false, false, true, false, false, false, false, false, false, false, false, false, false, false, false, true, true, true, true, false, false, false, false, false, false, false, false, false, false, false, true, false, false, false, false, false, false, true, true, true, true, false, false, false, false, false, true, true, true, false, false, false, false, false, true, true, true, false, false, false, false, false, false, false, false, false, false, false, true, false, false, false, false, false, false, false, false, false, false, false, true, false, false, false, false, false, false, false, false, false, false, false, false, true, false, false, false, false, false, false, false, false, false, false, false, false, true, false, false, false, false, false, false, false, false, false, false, false, false, true, false, false, false, false, false, false, false, false, false, false, false, true, false, false, false, false, false, false, false, false, false, false, false, true, false, false, false, false, false, false, false, false, false, false, false, false, true, false, false, false, false, false, false, false, false, false, false, false, false, true, false, false, false, false, false, false, false, false, false, false, false, false, true, false, false, false, false, false, false, false, false, false, false, false, true, false, false, false, false, false, false, false, false, false, false, false, true, false, false, false, false, false, false, false, false, false, false, false, false, true, false, false, false, false, false, false, false, false, false, false, false, false, true, false, false, false, false, false, false, false, false, false, false, false, false, true, false, false, false, false, false];
b_route = [1, 1, 1, 1, 1, 1, 1, 1, 1, 1, 1, 2, 2, 2, 2, 2, 2, 2, 2, 2, 2, 2, 2, 2, 3, 3, 3, 3, 3, 3, 3, 3, 3, 3, 3, 3, 3, 4, 4, 4, 4, 4, 4, 4, 4, 4, 4, 4, 4, 4, 5, 5, 5, 5, 5, 5, 5, 5, 5, 5, 5, 5, 5, 6, 6, 6, 6, 6, 6, 6, 6, 7, 7, 7, 7, 7, 7, 7, 7, 8, 8, 8, 8, 8, 8, 8, 8, 8, 8, 8, 9, 9, 9, 9, 9, 9, 9, 9, 9, 9, 9, 9, 9, 10, 10, 10, 10, 10, 10, 10, 10, 10, 10, 10, 10, 10, 11, 11, 11, 11, 11, 11, 11, 11, 11, 11, 11, 11, 11, 12, 12, 12, 12, 12, 12, 12, 12, 12, 12, 12, 12, 12, 13, 13, 13, 13, 13, 13, 13, 13, 14, 14, 14, 14, 14, 14, 14, 14, 14, 14, 14, 15, 15, 15, 15, 15, 15, 15, 15, 15, 15, 15, 15, 15, 16, 16, 16, 16, 16, 16, 16, 16, 16, 16, 16, 16, 16, 17, 17, 17, 17, 17, 17, 17, 17, 17, 17, 17, 17, 17, 18, 18, 18, 18, 18, 18, 18, 18, 18, 18, 18, 18, 18, 19, 19, 19, 19, 19, 19, 19, 19, 20, 20, 20, 20, 20, 20, 20, 21, 21, 21, 21, 21, 21, 21, 21, 22, 22, 22, 22, 22, 22, 22, 23, 23, 23, 23, 23, 23, 23, 23, 24, 24, 24, 24, 24, 24, 24, 24, 25, 25, 25, 25, 25, 25, 25, 25, 26, 26, 26, 26, 26, 26, 26, 26, 26, 26, 26, 27, 27, 27, 27, 27, 27, 27, 27, 27, 27, 27, 27, 27, 28, 28, 28, 28, 28, 28, 28, 28, 28, 28, 28, 28, 28, 29, 29, 29, 29, 29, 29, 29, 29, 29, 29, 29, 29, 29, 30, 30, 30, 30, 30, 30, 30, 30, 30, 30, 30, 30, 30, 31, 31, 31, 31, 31, 31, 31, 31, 31, 31, 31, 32, 32, 32, 32, 32, 32, 32, 32, 32, 32, 32, 32, 32, 33, 33, 33, 33, 33, 33, 33, 33, 33, 33, 33, 33, 33, 34, 34, 34, 34, 34, 34, 34, 34, 34, 34, 34, 34, 34, 35, 35, 35, 35, 35, 35, 35, 35, 35, 35, 35, 35, 35, 36, 36, 36, 36, 36, 36, 36, 36, 36, 36, 36, 37, 37, 37, 37, 37, 37, 37, 37, 37, 37, 37, 37, 37, 38, 38, 38, 38, 38, 38, 38, 38, 38, 38, 38, 38, 38, 39, 39, 39, 39, 39, 39, 39, 39, 39, 39, 39, 39, 39, 40, 40, 40, 40, 40, 40, 40, 40, 40, 40, 40, 40, 40];
